p edge 40 81
e 1 3
e 1 5
e 1 12
e 1 13
e 1 18
e 1 24
e 1 34
e 2 5
e 2 9
e 2 19
e 2 20
e 2 21
e 2 22
e 2 27
e 3 5
e 3 8
e 3 12
e 3 17
e 3 18
e 3 21
e 3 23
e 4 5
e 4 11
e 4 16
e 4 17
e 4 29
e 4 38
e 5 12
e 5 17
e 5 21
e 6 7
e 6 8
e 6 10
e 6 11
e 6 20
e 7 8
e 7 11
e 7 18
e 7 40
e 8 23
e 8 26
e 8 36
e 9 19
e 9 22
e 9 25
e 9 27
e 9 33
e 10 19
e 10 22
e 11 14
e 11 23
e 11 24
e 12 13
e 12 15
e 12 17
e 12 21
e 12 29
e 12 34
e 13 24
e 13 34
e 13 39
e 14 23
e 14 24
e 15 29
e 15 37
e 16 29
e 16 33
e 16 38
e 17 21
e 17 30
e 18 25
e 19 22
e 19 27
e 19 33
e 23 24
e 26 31
e 26 32
e 27 33
e 28 35
e 29 38
e 31 32
